     30      1     10    490     10
     52
      7     28     27      7     25     12      2     17      6     14      9     19      4      3     15      3     17      5     17     15     26     18     22     12     14     28      0     27      2     10     12      2      6     17     25     21      6      7     18      1     25     24     27     24      6      1      9      6     14     29     23      0     27     16      3      1      8     14      5     20     16      6     25     11     18      2      8     22     10      4     14     19     27     16     11     21      9      6     11     22     11      6     16      9     21     15      2     11     21     23     19     23     27     15      4      8     16      5     20     15     11     27     10      3      4     13      6     21      4     25     17     22     29      0     16      2     11     24      5      3
     60     45    123     51     27    113    -14    -19    -30     70     46    -33      0     67     83    105    128    119     68    -13     -2     70    -31     52    104     79    -30     15    118    -31
      1     15	    167    117      4      5      9      0      0      0      0      0      0      0      0      0      0      0      0      0      0     -9      4      0      0      0      0    -20    -31      0      0      0      0      0      0      0      0
      2     11	    272    182      5      5      2      0      0      0      0      0     54     26    -54    -10      0      0      2      0      0      0      0      0      0      0      0      0      0      0      0    149      1      0    144      0    142
      2     10	    294    180      6     10      5      0      0      0    107    117     58      0      0    136      0      0      0      0      0      0      0      0      0      0     41      0      0      0      0      0      0      0     50      0    -58
      6     13	    453     55      8     10      7      0      0    107      0    -50      0      0    298      0      0      0    135      0      0      0      0      0      0      0      0      0      0      0      0     65    -46      0      0     -2      0
      6     12	    391    214      6      9     10      0      0    117    -50      0    269      0      0      0      0      0      0      0      0    -56      0      0    109    -18     27    162      0      0      0      0      0      0      0      0      0
      4     15	    450    199      5      6      4      0     54     58      0    269      0      0      0      0      0      0      0      0     21      0      0     -9      0    176      0      0      0      0      0      0      0      0    106     34      0
      4     12	    171     83      7      7      1      0     26      0      0      0      0      0      0      0    -15      0     39      5      0      0     10      0      0      0      0      0      0    -10      0      0      0      0      9      0    126
      2     15	    498    343      5      8      6      0    -54      0    298      0      0      0      0      0      0      0      0      0      0      0     40      0      0      0      0    237      0      0      0      0      0     64      0      0      0
      3     15	    379    191      7     10      9      0    -10    136      0      0      0      0      0      0    272    -67      0      0      0      0     83      0      0      0      0    226      0      0      0      0      0     44    234    138      0
      4     15	    348    131      6      9      1      0      0      0      0      0      0    -15      0    272      0      0      0      0      0      0      0      0      0     -5      0      0      0     61      0      0      0    103    -49      0      0
      4     12	    351    231      8      9      3      0      0      0      0      0      0      0      0    -67      0      0      0      0      0      0      0      0      0      0      0     71      0      0      0      0      0      0      0      0      0
      3     12	    207     63      8      9      3      0      2      0    135      0      0     39      0      0      0      0      0      0    125      0      0      0     -8      0      0      0      0      0      0      0      0      0    143      0      0
      3     14	    225     97      3      8      6      0      0      0      0      0      0      5      0      0      0      0      0      0      0      0      0      0      0      0      0      0      0      0      0      0      0    -17      0      0      0
      6     10	    285     73      7      7      1      0      0      0      0      0     21      0      0      0      0      0    125      0      0    189     96      0      0      0     -2      0    123      0      0      0      0      0      0      0      0
      5     15	    283    126      8      8      1     -9      0      0      0    -56      0      0      0      0      0      0      0      0    189      0      0      0    -18      0     30      0    119      0      0      0      0      0      0      0      0
      1     13	    164    102      7      8      6      4      0      0      0      0      0     10     40     83      0      0      0      0     96      0      0     12      0      0      0     22      0     99      0      0      0      3      0      0      0
      3     11	    288    177      6      8      3      0      0      0      0      0     -9      0      0      0      0      0      0      0      0      0     12      0      0      0      0    227      0      0      0      0      0      0      0      0      0
      2     15	    145     71      9     10      4      0      0      0      0    109      0      0      0      0      0      0     -8      0      0    -18      0      0      0      0      0      0      0      0      0      0      0      0     49      0      0
      3     14	    349    162      3      7      6      0      0      0      0    -18    176      0      0      0     -5      0      0      0      0      0      0      0      0      0      0    248     62    269      0      0    119      0      0      0    -42
      6     10	    128     72      6      8      1      0      0     41      0     27      0      0      0      0      0      0      0      0     -2     30      0      0      0      0      0      0      0      0      0      0      0      0     35      0      0
      2     10	    475     66      2      8     10    -20      0      0      0    162      0      0    237    226      0     71      0      0      0      0     22    227      0    248      0      0      0      0      0    344      0     89      0      0      0
      5     15	    158    100      6     10      4    -31      0      0      0      0      0      0      0      0      0      0      0      0    123    119      0      0      0     62      0      0      0      0      0      0     17      0      0      0      0
      1     11	    433    166      2      9      1      0      0      0      0      0      0    -10      0      0     61      0      0      0      0      0     99      0      0    269      0      0      0      0      0      0      0      0    270      0      0
      5     13	    150     69      6      9      2      0      0      0      0      0      0      0      0      0      0      0      0      0      0      0      0      0      0      0      0      0      0      0      0      0      0      0      0      0    113
      3     10	    485    105      3      5      4      0    149      0     65      0      0      0      0      0      0      0      0      0      0      0      0      0      0      0      0    344      0      0      0      0      0      0      0      0    108
      3     11	    326    173      4     10      1      0      1      0    -46      0      0      0      0      0      0      0      0      0      0      0      0      0      0    119      0      0     17      0      0      0      0     19      0     87      0
      3     11	    137     85      5      5      5      0      0      0      0      0      0      0     64     44    103      0      0    -17      0      0      3      0      0      0      0     89      0      0      0      0     19      0      0      0      0
      3     13	    403    117      7      8      2      0    144     50      0      0    106      9      0    234    -49      0    143      0      0      0      0      0     49      0     35      0      0    270      0      0      0      0      0     25      0
      6     15	    242    128      8     10      4      0      0      0     -2      0     34      0      0    138      0      0      0      0      0      0      0      0      0      0      0      0      0      0      0      0     87      0     25      0      0
      1     14	    293    188      2     10     10      0    142    -58      0      0      0    126      0      0      0      0      0      0      0      0      0      0      0    -42      0      0      0      0    113    108      0      0      0      0      0